% The Rogo problem Intro 4
% 
% http://www.rogopuzzle.co.nz/paper-rogos/intro-rogo-4
%
rows = 6;
cols = 9;
max_steps = 12;
best = 21;
problem = array2d(1..rows, 1..cols, 
[
 %1 2 3 4 5 6 7,8,9
  5,W,W,W,B,W,W,W,5, % 
  W,3,W,W,W,W,W,4,W, % 2
  W,W,1,W,W,W,4,W,W, % 3
  W,W,3,W,W,W,5,W,W, % 4
  W,5,W,W,W,W,W,3,W, % 5
  4,W,W,W,B,W,W,W,2, % 6
]);
